c Generated map
c Size: 12 * 12, weights in range: 1 to 10, walls: True, with ratio 0.1
c dim 3 of 5
c
p sp 144 215
c graph contains 144 nodes and 215 arcs
c
a 1 13 4
a 13 1 4
a 1 2 8
a 2 1 8
a 2 14 6
a 14 2 6
a 2 3 2
a 3 2 2
a 3 15 4
a 15 3 4
a 3 4 2
a 4 3 2
a 4 16 3
a 16 4 3
a 4 5 5
a 5 4 5
a 5 17 10
a 17 5 10
a 5 6 9
a 6 5 9
a 6 18 2
a 18 6 2
a 8 20 3
a 20 8 3
a 8 9 4
a 9 8 4
a 9 21 3
a 21 9 3
a 9 10 7
a 10 9 7
a 10 22 1
a 22 10 1
a 10 11 3
a 11 10 3
a 11 23 4
a 23 11 4
a 13 25 6
a 25 13 6
a 13 14 2
a 14 13 2
a 14 26 5
a 26 14 5
a 14 15 5
a 15 14 5
a 15 27 7
a 27 15 7
a 15 16 3
a 16 15 3
a 16 28 5
a 28 16 5
a 16 17 9
a 17 16 9
a 17 29 7
a 29 17 7
a 17 18 8
a 18 17 8
a 18 30 7
a 30 18 7
a 18 19 2
a 19 18 2
a 19 31 1
a 31 19 1
a 19 20 1
a 20 19 1
a 20 32 10
a 32 20 10
a 20 21 5
a 21 20 5
a 21 33 5
a 33 21 5
a 21 22 5
a 22 21 5
a 22 34 3
a 34 22 3
a 22 23 8
a 23 22 8
a 23 35 1
a 35 23 1
a 23 24 3
a 24 23 3
a 25 37 7
a 37 25 7
a 25 26 7
a 26 25 7
a 26 38 2
a 38 26 2
a 26 27 10
a 27 26 10
a 27 39 8
a 39 27 8
a 27 28 5
a 28 27 5
a 28 40 1
a 40 28 1
a 28 29 3
a 29 28 3
a 29 41 8
a 41 29 8
a 29 30 6
a 30 29 6
a 30 42 2
a 42 30 2
a 30 31 7
a 31 30 7
a 31 43 5
a 43 31 5
a 31 32 2
a 32 31 2
a 32 44 5
a 44 32 5
a 32 33 1
a 33 32 1
a 33 45 10
a 45 33 10
a 33 34 1
a 34 33 1
a 34 46 2
a 46 34 2
a 34 35 7
a 35 34 7
a 35 47 2
a 47 35 2
a 37 49 8
a 49 37 8
a 37 38 5
a 38 37 5
a 38 50 4
a 50 38 4
a 38 39 4
a 39 38 4
a 39 51 3
a 51 39 3
a 39 40 7
a 40 39 7
a 40 52 9
a 52 40 9
a 40 41 6
a 41 40 6
a 41 53 2
a 53 41 2
a 41 42 10
a 42 41 10
a 42 54 10
a 54 42 10
a 42 43 5
a 43 42 5
a 43 55 9
a 55 43 9
a 43 44 3
a 44 43 3
a 44 56 4
a 56 44 4
a 44 45 7
a 45 44 7
a 45 57 4
a 57 45 4
a 45 46 2
a 46 45 2
a 46 58 8
a 58 46 8
a 46 47 10
a 47 46 10
a 47 48 8
a 48 47 8
a 48 60 10
a 60 48 10
a 49 61 5
a 61 49 5
a 49 50 3
a 50 49 3
a 50 62 1
a 62 50 1
a 50 51 3
a 51 50 3
a 51 63 9
a 63 51 9
a 51 52 3
a 52 51 3
a 52 64 9
a 64 52 9
a 52 53 5
a 53 52 5
a 53 54 8
a 54 53 8
a 54 66 7
a 66 54 7
a 54 55 3
a 55 54 3
a 55 67 10
a 67 55 10
a 55 56 4
a 56 55 4
a 56 57 5
a 57 56 5
a 57 69 10
a 69 57 10
a 57 58 7
a 58 57 7
a 58 70 3
a 70 58 3
a 60 72 4
a 72 60 4
a 61 73 3
a 73 61 3
a 61 62 2
a 62 61 2
a 62 74 6
a 74 62 6
a 62 63 2
a 63 62 2
a 63 64 1
a 64 63 1
a 64 76 8
a 76 64 8
a 66 78 10
a 78 66 10
a 66 67 3
a 67 66 3
a 69 81 4
a 81 69 4
a 69 70 7
a 70 69 7
a 70 82 4
a 82 70 4
a 70 71 8
a 71 70 8
a 71 83 4
a 83 71 4
a 71 72 10
a 72 71 10
a 73 85 4
a 85 73 4
a 73 74 6
a 74 73 6
a 74 86 10
a 86 74 10
a 76 88 1
a 88 76 1
a 76 77 8
a 77 76 8
a 77 78 4
a 78 77 4
a 78 90 2
a 90 78 2
a 80 92 5
a 92 80 5
a 80 81 6
a 81 80 6
a 81 93 8
a 93 81 8
a 81 82 8
a 82 81 8
a 82 94 6
a 94 82 6
a 82 83 4
a 83 82 4
a 83 95 4
a 95 83 4
a 85 97 4
a 97 85 4
a 85 86 6
a 86 85 6
a 86 98 8
a 98 86 8
a 86 87 5
a 87 86 5
a 87 99 3
a 99 87 3
a 87 88 4
a 88 87 4
a 88 100 5
a 100 88 5
a 90 102 3
a 102 90 3
a 90 91 4
a 91 90 4
a 91 103 5
a 103 91 5
a 91 92 6
a 92 91 6
a 92 104 10
a 104 92 10
a 92 93 3
a 93 92 3
a 93 105 8
a 105 93 8
a 93 94 4
a 94 93 4
a 94 95 7
a 95 94 7
a 95 107 6
a 107 95 6
a 95 96 5
a 96 95 5
a 96 108 5
a 108 96 5
a 97 109 7
a 109 97 7
a 97 98 6
a 98 97 6
a 98 110 3
a 110 98 3
a 98 99 1
a 99 98 1
a 99 111 10
a 111 99 10
a 99 100 2
a 100 99 2
a 100 112 10
a 112 100 10
a 102 114 5
a 114 102 5
a 102 103 9
a 103 102 9
a 103 115 4
a 115 103 4
a 103 104 9
a 104 103 9
a 104 116 8
a 116 104 8
a 104 105 5
a 105 104 5
a 105 117 8
a 117 105 8
a 107 119 9
a 119 107 9
a 107 108 10
a 108 107 10
a 108 120 10
a 120 108 10
a 109 121 2
a 121 109 2
a 109 110 4
a 110 109 4
a 110 122 2
a 122 110 2
a 110 111 7
a 111 110 7
a 111 123 2
a 123 111 2
a 111 112 6
a 112 111 6
a 112 124 10
a 124 112 10
a 112 113 8
a 113 112 8
a 113 125 6
a 125 113 6
a 113 114 1
a 114 113 1
a 114 126 4
a 126 114 4
a 114 115 3
a 115 114 3
a 115 127 7
a 127 115 7
a 115 116 2
a 116 115 2
a 116 128 5
a 128 116 5
a 116 117 9
a 117 116 9
a 117 118 9
a 118 117 9
a 118 130 3
a 130 118 3
a 118 119 3
a 119 118 3
a 119 131 10
a 131 119 10
a 119 120 8
a 120 119 8
a 120 132 6
a 132 120 6
a 121 133 6
a 133 121 6
a 121 122 8
a 122 121 8
a 122 134 9
a 134 122 9
a 122 123 2
a 123 122 2
a 123 135 5
a 135 123 5
a 123 124 6
a 124 123 6
a 124 136 6
a 136 124 6
a 124 125 9
a 125 124 9
a 125 137 8
a 137 125 8
a 125 126 10
a 126 125 10
a 126 138 5
a 138 126 5
a 126 127 8
a 127 126 8
a 127 128 5
a 128 127 5
a 128 140 3
a 140 128 3
a 130 142 9
a 142 130 9
a 130 131 4
a 131 130 4
a 131 143 3
a 143 131 3
a 131 132 10
a 132 131 10
a 132 144 4
a 144 132 4
a 133 134 2
a 134 133 2
a 134 135 3
a 135 134 3
a 135 136 2
a 136 135 2
a 136 137 3
a 137 136 3
a 137 138 1
a 138 137 1
a 140 141 6
a 141 140 6
a 141 142 9
a 142 141 9
a 142 143 7
a 143 142 7
a 143 144 4
a 144 143 4
